NAME: tsp30-35
TYPE: TSP
DIMENSION: 30
EDGE_WEIGHT_TYPE: EUC_2D
NODE_COORD_SECTION
0 10 43
1 98 35
2 77 31
3 2 96
4 54 82
5 71 17
6 94 60
7 45 99
8 67 49
9 15 85
10 29 54
11 90 11
12 82 93
13 85 11
14 69 78
15 12 28
16 67 37
17 30 10
18 20 85
19 51 49
20 39 19
21 11 85
22 65 59
23 6 100
24 28 32
25 99 94
26 25 78
27 23 7
28 91 41
29 58 77
EOF